(set-logic ALL)
(set-option :produce-models true)
(define-fun-rec str.toLower ((x String)) String
  (ite (= x "")
      ""
      (let ((Head (str.at x 0)))
        (str.++ 
          (ite (and (<= 65 (str.to_code Head)) 
                     (<= (str.to_code Head) 90))
               (str.from_code (+ (str.to_code Head) 32))
               Head)
          (str.toLower (str.substr x 1 (- (str.len x) 1)))))))
(declare-fun sym209 () String)
(declare-fun sym1703 () String)
(declare-fun sym817 () String)
(declare-fun sym1921 () String)
(declare-fun sym3217 () String)
(declare-fun sym1039 () String)
(declare-fun sym551 () String)
(declare-fun sym2139 () String)
(declare-fun sym2357 () String)
(declare-fun sym2575 () String)
(declare-fun sym3433 () String)
(declare-fun sym2793 () String)
(declare-fun sym1264 () String)
(declare-fun sym3530 () String)
(declare-fun sym1485 () String)
(declare-fun sym3011 () String)
(declare-fun sym161 () String)

(assert (not (= "y" "n" )))
(assert (not (= (str.toLower (str.substr sym3011  0 1))"p" )))
(assert (not (= (str.toLower (str.substr sym2793  0 1))"q" )))
(assert (= "" sym161 ))
(assert (not (= (str.toLower (str.substr sym3217  0 1))"p" )))
(assert (not (= (str.toLower (str.substr sym2575  0 1))"q" )))
(assert (not (= "" "q" )))
(assert (not (= (str.toLower (str.substr sym1485  0 1))"q" )))
(assert (not (= (str.toLower (str.substr sym1264  0 1))"g" )))
(assert (not (= (str.toLower (str.substr sym1039  0 1))"k" )))
(assert (not (= (str.toLower (str.substr sym1264  0 1))"k" )))
(assert (= (str.toLower (str.substr sym2575  0 1))"p" ))
(assert (not (= "" sym1485 )))
(assert (not (= (str.toLower (str.substr sym3433  0 1))"p" )))
(assert (not (= (str.toLower (str.substr sym3217  0 1))"q" )))
(assert (not (= "" sym817 )))
(assert (not (= (str.toLower (str.substr sym1264  0 1))"q" )))
(assert (not (= "" sym209 )))
(assert (not (= "" sym3011 )))
(assert (not (= (str.toLower (str.substr sym3433  0 1))"k" )))
(assert (= (str.toLower (str.substr sym551  0 1))"p" ))
(assert (not (= "" sym551 )))
(assert (not (= "" sym3433 )))
(assert (not (= "" "n" )))
(assert (not (= (str.toLower (str.substr sym3530  0 1))"y" )))
(assert (not (= (str.toLower (str.substr sym1039  0 1))"q" )))
(assert (not (= (str.toLower (str.substr sym817  0 1))"p" )))
(assert (not (= (str.toLower (str.substr sym1264  0 1))"l" )))
(assert (not (= (str.toLower (str.substr sym3217  0 1))"k" )))
(assert (not (= (str.toLower (str.substr sym1921  0 1))"q" )))
(assert (not (= "" sym1921 )))
(assert (not (= (str.toLower (str.substr sym551  0 1))"q" )))
(assert (= (str.toLower (str.substr sym2793  0 1))"p" ))
(assert (not (= "n" "y" )))
(assert (not (= "" sym2793 )))
(assert (= (str.toLower (str.substr sym2357  0 1))"p" ))
(assert (not (= "" sym2357 )))
(assert (= "y" "y" ))
(assert (= (str.toLower (str.substr sym1485  0 1))"p" ))
(assert (not (= "" sym2575 )))
(assert (= (str.toLower (str.substr sym2139  0 1))"p" ))
(assert (= (str.toLower (str.substr sym1921  0 1))"p" ))
(assert (not (= "" sym2139 )))
(assert (not (= "" (str.toLower (str.substr sym3530  0 1)))))
(assert (= (str.toLower (str.substr sym209  0 1))"y" ))
(assert (not (= (str.toLower (str.substr sym2357  0 1))"q" )))
(assert (not (= (str.toLower (str.substr sym2139  0 1))"q" )))
(assert (not (= (str.toLower (str.substr sym3433  0 1))"q" )))
(assert (= (str.toLower (str.substr sym817  0 1))"k" ))
(assert (= (str.toLower (str.substr sym1703  0 1))"p" ))
(assert (not (= (str.toLower (str.substr sym817  0 1))"q" )))
(assert (= (str.toLower (str.substr sym3433  0 1))"g" ))
(assert (not (= (str.toLower (str.substr sym1264  0 1))"r" )))
(assert (= (str.toLower (str.substr sym1039  0 1))"g" ))
(assert (not (= (str.toLower (str.substr sym1703  0 1))"q" )))
(assert (not (= "" "y" )))
(assert (not (= (str.toLower (str.substr sym3011  0 1))"q" )))
(assert (not (= "" (str.toLower (str.substr sym209  0 1)))))
(assert (= "" "" ))
(assert (not (= (str.toLower (str.substr sym1039  0 1))"p" )))
(assert (not (= "" sym1703 )))
(assert (not (= (str.toLower (str.substr sym1264  0 1))"p" )))
(assert (not (= "" sym3530 )))
(assert (= (str.toLower (str.substr sym3011  0 1))"k" ))
(assert (= (str.toLower (str.substr sym3217  0 1))"g" ))
(assert (not (= "" sym1039 )))
(assert (not (= "" sym3217 )))
(assert (not (= "" "y" )))
(assert (not (= "" sym1264 )))
(assert (= (str.toLower (str.substr sym1264  0 1))"h" ))
(check-sat)
(get-model)
(exit)
